NAME: Random_60_5
ELLAPSED_TIME_(ms): 290
TOUR_SIZE: 1034
TOUR_SECTION
0
4
52
40
22
29
41
42
32
39
26
2
9
6
7
48
34
56
37
16
18
35
44
54
5
17
23
1
31
55
3
15
10
36
43
51
49
11
19
53
46
38
20
14
50
25
57
8
12
21
45
33
59
28
13
58
30
24
27
47
0
EOF
